
;this file is automatically generated: Sun Oct 25 10:43:47 CST 2020

;declarations generated

(declare-fun obj_62d4b7ff_8975_4fda_aa0a_c3aa7a0d5ca5 ( Int) Int)
(declare-fun oclExcludes ( Int Int) Bool)
(declare-fun Cardinality ( Int) Int)
(declare-fun type_e5cc2f2f_aad9_45de_ae1a_a245f1b2ef51_Class18 ( Int) Bool)
(declare-fun type_e5cc2f2f_aad9_45de_ae1a_a245f1b2ef51_Class19 ( Int) Bool)
(declare-fun oclSelect ( Int Bool) Int)
(declare-fun Enum0 ( Int) Int)
(declare-fun Enum1 ( Int) Int)
(declare-fun container_ ( Int) Int)
(declare-fun class2_Class2IntAttr3 ( Int) Int)
(declare-fun class2_Class2IntAttr2 ( Int) Int)
(declare-fun oclIncludes ( Int Int) Bool)
(declare-fun type_e5cc2f2f_aad9_45de_ae1a_a245f1b2ef51_Class2 ( Int) Bool)
(declare-fun ObjAt ( Int Int) Int)

;formula(s) generated
(assert (! (forall ((c1 Int)) (=> (and (and ( type_e5cc2f2f_aad9_45de_ae1a_a245f1b2ef51_Class2 c1 )  ( type_e5cc2f2f_aad9_45de_ae1a_a245f1b2ef51_Class18 c1 ) ) ( type_e5cc2f2f_aad9_45de_ae1a_a245f1b2ef51_Class19 c1 ) ) (< ( class2_Class2IntAttr2 ( obj_62d4b7ff_8975_4fda_aa0a_c3aa7a0d5ca5 c1 )  )  5))):named l0))
(assert (! (forall ((c2_1 Int)(c2_2 Int)) (=> (and (and (and ( type_e5cc2f2f_aad9_45de_ae1a_a245f1b2ef51_Class2 c2_1 )  ( type_e5cc2f2f_aad9_45de_ae1a_a245f1b2ef51_Class18 c2_1 ) ) ( type_e5cc2f2f_aad9_45de_ae1a_a245f1b2ef51_Class19 c2_1 ) ) (and (and ( type_e5cc2f2f_aad9_45de_ae1a_a245f1b2ef51_Class2 c2_2 )  ( type_e5cc2f2f_aad9_45de_ae1a_a245f1b2ef51_Class18 c2_2 ) ) ( type_e5cc2f2f_aad9_45de_ae1a_a245f1b2ef51_Class19 c2_2 ) )) (<= ( class2_Class2IntAttr3 ( obj_62d4b7ff_8975_4fda_aa0a_c3aa7a0d5ca5 c2_1 )  )  ( class2_Class2IntAttr2 ( obj_62d4b7ff_8975_4fda_aa0a_c3aa7a0d5ca5 c2_2 )  ) ))):named l1))
(assert (exists ((o Int)) (and (and ( type_e5cc2f2f_aad9_45de_ae1a_a245f1b2ef51_Class2 ( obj_62d4b7ff_8975_4fda_aa0a_c3aa7a0d5ca5 o )  )  ( type_e5cc2f2f_aad9_45de_ae1a_a245f1b2ef51_Class18 ( obj_62d4b7ff_8975_4fda_aa0a_c3aa7a0d5ca5 o )  ) ) ( type_e5cc2f2f_aad9_45de_ae1a_a245f1b2ef51_Class19 ( obj_62d4b7ff_8975_4fda_aa0a_c3aa7a0d5ca5 o )  ) )))

 ;end of formula 